(set-logic HORN)
(declare-fun inv ((_ BitVec 64) (_ BitVec 64) (_ BitVec 64) (_ BitVec 64) ) Bool)
(assert (forall ((x (_ BitVec 64)) (y (_ BitVec 64)) (i (_ BitVec 64)) (j (_ BitVec 64))) 
       (=> ( and ( = x (_ bv0 64) ) ( = y (_ bv0 64) ) ( = j (_ bv0 64) ) ( = i (_ bv0 64) ) ) (inv x y i j))))
(assert (forall ((x (_ BitVec 64)) (y (_ BitVec 64)) (i (_ BitVec 64)) (j (_ BitVec 64)) (x! (_ BitVec 64)) (y! (_ BitVec 64)) (i! (_ BitVec 64)) (j! (_ BitVec 64))) 
       (=> (and (inv x y i j) ( let ( ( a!1 ( or ( = j! ( bvadd y! j ) ) ( = j! ( bvadd ( bvadd y! j ) (_ bv1 64) ) ) ) ) ) ( and ( = x! ( bvadd x (_ bv1 64) ) ) ( = y! ( bvadd y (_ bv1 64) ) ) ( = i! ( bvadd x! i ) ) a!1 ) )) (inv x! y! i! j!))))
(assert (forall ((x (_ BitVec 64)) (y (_ BitVec 64)) (i (_ BitVec 64)) (j (_ BitVec 64))) 
       (=> (inv x y i j) ( bvuge j i ))))
(check-sat)
